NAME          COPTPROB
OBJSENSE
  MIN
ROWS
 N  __OBJ___
 L  C4      
 L  C9      
 L  C10     
 L  C14     
 L  C15     
 L  C17     
 L  C18     
 L  C21     
 L  C26     
 L  C28     
 L  C29     
 L  C33     
 L  C34     
 L  C36     
 L  C37     
 L  C38     
 L  C40     
 L  C41     
 L  C43     
 L  C45     
 L  C48     
 L  C49     
 L  C51     
 L  C52     
 L  C56     
 L  C58     
 L  C64     
 L  C66     
 L  C67     
 L  C68     
 L  C70     
 L  C71     
 L  C73     
 L  C79     
 L  C81     
 L  C82     
 L  C84     
 L  C86     
 L  C87     
 L  C88     
 L  C89     
 L  C90     
 L  C96     
 L  C97     
 L  C98     
 L  C106    
 L  C107    
 L  C109    
 L  C111    
 L  C112    
 L  C113    
 L  C115    
 L  C116    
 L  C117    
 L  C122    
 L  C123    
 L  C125    
 L  C126    
 L  C127    
 L  C130    
 L  C133    
 L  C134    
 L  C135    
 L  C136    
 L  C139    
 L  C141    
 L  C143    
 L  C144    
 L  C145    
 L  C146    
 L  C147    
 L  C151    
 L  C156    
 L  C157    
 L  C158    
 L  C162    
 L  C163    
 L  C165    
 L  C167    
 L  C170    
 L  C175    
 L  C177    
 L  C178    
 L  C182    
 L  C183    
 L  C188    
 L  C191    
 L  C194    
 L  C196    
 L  C203    
 L  C205    
 L  C207    
 L  C214    
 L  C215    
 L  C216    
 L  C218    
 L  C219    
 L  C220    
 L  C223    
 L  C225    
 L  C226    
 L  C227    
 L  C229    
 L  C231    
 L  C235    
 L  C236    
 L  C240    
 L  C241    
 L  C242    
 L  C244    
 L  C245    
 L  C251    
 L  C256    
 L  C258    
 L  C262    
 L  C268    
 L  C273    
 L  C274    
 L  C278    
 L  C279    
 L  C281    
 L  C283    
 L  C289    
 L  C294    
 L  C295    
 L  C297    
 L  C300    
 L  C303    
 L  C307    
 L  C311    
 L  C312    
 L  C313    
 L  C314    
 L  C315    
 L  C317    
 L  C322    
 L  C323    
 L  C327    
 L  C331    
 L  C332    
 L  C338    
 L  C339    
 L  C342    
 L  C343    
 L  C345    
 L  C348    
 L  C349    
 L  C350    
 L  C354    
 L  C357    
 L  C359    
 L  C360    
 L  C366    
 L  C367    
 L  C368    
 L  C369    
 L  C370    
 L  C374    
 L  C376    
 L  C377    
 L  C378    
 L  C387    
 L  C388    
 L  C389    
 L  C391    
 L  C392    
 L  C395    
COLUMNS
    MARKER    'MARKER'                 'INTORG'
    x4        __OBJ___  462
    x4        C58       -1
    x4        C112      -1
    x4        C377      -1
    x7        __OBJ___  697
    x7        C41       -1
    x7        C98       -1
    x7        C113      -1
    x7        C367      -1
    x9        __OBJ___  453
    x9        C14       -1
    x9        C122      -1
    x9        C156      -1
    x9        C214      -1
    x9        C392      -1
    x10       __OBJ___  499
    x10       C220      -1
    x10       C245      -1
    x10       C278      -1
    x10       C349      -1
    x11       __OBJ___  985
    x11       C117      -1
    x11       C218      -1
    x11       C235      -1
    x11       C244      -1
    x14       __OBJ___  915
    x14       C17       -1
    x14       C28       -1
    x14       C130      -1
    x14       C143      -1
    x14       C378      -1
    x16       __OBJ___  69
    x16       C281      -1
    x16       C343      -1
    x17       __OBJ___  528
    x17       C15       -1
    x17       C40       -1
    x18       __OBJ___  931
    x18       C87       -1
    x18       C145      -1
    x18       C225      -1
    x18       C262      -1
    x20       __OBJ___  167
    x20       C368      -1
    x21       __OBJ___  700
    x21       C21       -1
    x21       C188      -1
    x21       C205      -1
    x21       C331      -1
    x25       __OBJ___  751
    x25       C84       -1
    x25       C133      -1
    x25       C215      -1
    x25       C345      -1
    x29       __OBJ___  283
    x29       C37       -1
    x29       C312      -1
    x31       __OBJ___  327
    x31       C71       -1
    x31       C203      -1
    x31       C389      -1
    x32       __OBJ___  516
    x32       C10       -1
    x32       C79       -1
    x32       C256      -1
    x34       __OBJ___  229
    x34       C165      -1
    x34       C360      -1
    x34       C387      -1
    x36       __OBJ___  582
    x36       C134      -1
    x36       C307      -1
    x36       C323      -1
    x36       C366      -1
    x37       __OBJ___  483
    x37       C107      -1
    x37       C317      -1
    x37       C332      -1
    x38       __OBJ___  947
    x38       C163      -1
    x38       C242      -1
    x38       C322      -1
    x39       __OBJ___  544
    x39       C339      -1
    x39       C350      -1
    x39       C354      -1
    x42       __OBJ___  444
    x42       C18       -1
    x42       C51       -1
    x42       C82       -1
    x42       C106      -1
    x42       C135      -1
    x42       C196      -1
    x43       __OBJ___  226
    x43       C70       -1
    x43       C141      -1
    x43       C388      -1
    x44       __OBJ___  843
    x44       C158      -1
    x44       C391      -1
    x47       __OBJ___  347
    x47       C194      -1
    x47       C216      -1
    x47       C227      -1
    x47       C300      -1
    x48       __OBJ___  392
    x48       C68       -1
    x48       C97       -1
    x48       C177      -1
    x49       __OBJ___  724
    x49       C81       -1
    x49       C89       -1
    x49       C229      -1
    x49       C342      -1
    x49       C359      -1
    x61       __OBJ___  834
    x61       C67       -1
    x61       C123      -1
    x61       C303      -1
    x61       C313      -1
    x64       __OBJ___  177
    x64       C4        -1
    x64       C162      -1
    x64       C170      -1
    x64       C251      -1
    x67       __OBJ___  757
    x67       C52       -1
    x67       C96       -1
    x67       C370      -1
    x68       __OBJ___  982
    x68       C33       -1
    x68       C56       -1
    x68       C311      -1
    x68       C357      -1
    x69       __OBJ___  87
    x69       C49       -1
    x69       C64       -1
    x69       C111      -1
    x69       C268      -1
    x76       __OBJ___  619
    x76       C88       -1
    x76       C90       -1
    x76       C144      -1
    x79       __OBJ___  548
    x79       C29       -1
    x79       C48       -1
    x79       C241      -1
    x81       __OBJ___  650
    x81       C136      -1
    x81       C183      -1
    x81       C191      -1
    x81       C207      -1
    x81       C348      -1
    x84       __OBJ___  579
    x84       C34       -1
    x84       C146      -1
    x84       C167      -1
    x84       C374      -1
    x85       __OBJ___  202
    x85       C43       -1
    x85       C231      -1
    x85       C283      -1
    x89       __OBJ___  197
    x89       C139      -1
    x89       C157      -1
    x89       C294      -1
    x91       __OBJ___  892
    x91       C182      -1
    x91       C223      -1
    x91       C274      -1
    x91       C315      -1
    x93       __OBJ___  50
    x93       C66       -1
    x93       C109      -1
    x93       C236      -1
    x93       C395      -1
    x94       __OBJ___  144
    x94       C9        -1
    x94       C38       -1
    x94       C73       -1
    x98       __OBJ___  773
    x98       C26       -1
    x98       C36       -1
    x98       C147      -1
    x98       C175      -1
    x98       C178      -1
    x98       C289      -1
    x98       C297      -1
    x99       __OBJ___  796
    x99       C17       -1
    x99       C127      -1
    x99       C268      -1
    x99       C295      -1
    x99       C349      -1
    x99       C359      -1
    x101      __OBJ___  947
    x101      C145      -1
    x101      C158      -1
    x101      C281      -1
    x116      __OBJ___  751
    x116      C58       -1
    x116      C122      -1
    x116      C223      -1
    x116      C244      -1
    x116      C279      -1
    x118      __OBJ___  930
    x118      C147      -1
    x118      C194      -1
    x118      C289      -1
    x118      C315      -1
    x120      __OBJ___  284
    x120      C4        -1
    x120      C40       -1
    x120      C227      -1
    x120      C360      -1
    x123      __OBJ___  627
    x123      C9        -1
    x123      C98       -1
    x123      C205      -1
    x124      __OBJ___  108
    x124      C178      -1
    x124      C369      -1
    x130      __OBJ___  684
    x130      C235      -1
    x130      C297      -1
    x131      __OBJ___  186
    x131      C196      -1
    x131      C350      -1
    x133      __OBJ___  33
    x133      C279      -1
    x133      C376      -1
    x137      __OBJ___  553
    x137      C175      -1
    x137      C203      -1
    x138      __OBJ___  229
    x138      C36       -1
    x138      C88       -1
    x139      __OBJ___  740
    x139      C88       -1
    x139      C151      -1
    x139      C188      -1
    x142      __OBJ___  857
    x142      C29       -1
    x142      C133      -1
    x142      C188      -1
    x142      C395      -1
    x144      __OBJ___  325
    x144      C127      -1
    x144      C226      -1
    x144      C279      -1
    x146      __OBJ___  205
    x146      C26       -1
    x146      C368      -1
    x149      __OBJ___  304
    x149      C51       -1
    x149      C58       -1
    x149      C126      -1
    x149      C338      -1
    x150      __OBJ___  581
    x150      C112      -1
    x150      C366      -1
    x154      __OBJ___  206
    x154      C205      -1
    x154      C274      -1
    x156      __OBJ___  275
    x156      C84       -1
    x156      C109      -1
    x156      C178      -1
    x157      __OBJ___  818
    x157      C163      -1
    x157      C214      -1
    x157      C317      -1
    x158      __OBJ___  38
    x158      C240      -1
    x158      C311      -1
    x159      __OBJ___  18
    x159      C139      -1
    x159      C225      -1
    x159      C377      -1
    x164      __OBJ___  905
    x164      C40       -1
    x164      C235      -1
    x164      C313      -1
    x164      C342      -1
    x164      C370      -1
    x164      C395      -1
    x169      __OBJ___  114
    x169      C170      -1
    x169      C303      -1
    x171      __OBJ___  930
    x171      C156      -1
    x171      C162      -1
    x171      C177      -1
    x171      C219      -1
    x171      C241      -1
    x175      __OBJ___  754
    x175      C188      -1
    x175      C194      -1
    x179      __OBJ___  203
    x179      C223      -1
    x179      C389      -1
    x180      __OBJ___  159
    x180      C4        -1
    x180      C312      -1
    x181      __OBJ___  107
    x181      C81       -1
    x181      C143      -1
    x181      C227      -1
    x181      C240      -1
    x182      __OBJ___  569
    x182      C9        -1
    x182      C68       -1
    x182      C70       -1
    x182      C107      -1
    x182      C231      -1
    x182      C297      -1
    x187      __OBJ___  174
    x187      C17       -1
    x187      C216      -1
    x192      __OBJ___  309
    x192      C21       -1
    x192      C51       -1
    x192      C136      -1
    x192      C167      -1
    x192      C392      -1
    x194      __OBJ___  179
    x194      C207      -1
    x194      C348      -1
    x195      __OBJ___  428
    x195      C4        -1
    x195      C45       -1
    x195      C156      -1
    x195      C262      -1
    x196      __OBJ___  325
    x196      C218      -1
    x196      C226      -1
    x196      C251      -1
    x199      __OBJ___  478
    x199      C244      -1
    x199      C294      -1
    x199      C387      -1
    x200      __OBJ___  109
    x200      C117      -1
    x200      C134      -1
    x200      C167      -1
    x200      C196      -1
    x200      C281      -1
    x202      __OBJ___  409
    x202      C97       -1
    x202      C157      -1
    x203      __OBJ___  830
    x203      C70       -1
    x203      C145      -1
    x203      C314      -1
    x204      __OBJ___  68
    x204      C214      -1
    x205      __OBJ___  347
    x205      C15       -1
    x205      C196      -1
    x205      C323      -1
    x207      __OBJ___  282
    x207      C146      -1
    x207      C215      -1
    x207      C300      -1
    x211      __OBJ___  418
    x211      C156      -1
    x213      __OBJ___  302
    x213      C67       -1
    x213      C96       -1
    x213      C307      -1
    x221      __OBJ___  161
    x221      C49       -1
    x221      C73       -1
    x221      C116      -1
    x222      __OBJ___  285
    x222      C207      -1
    x222      C369      -1
    x227      __OBJ___  326
    x227      C295      -1
    x227      C395      -1
    x232      __OBJ___  937
    x232      C147      -1
    x232      C165      -1
    x232      C191      -1
    x232      C345      -1
    x234      __OBJ___  169
    x234      C48       -1
    x234      C86       -1
    x238      __OBJ___  835
    x238      C4        -1
    x238      C67       -1
    x238      C98       -1
    x239      __OBJ___  606
    x239      C18       -1
    x239      C165      -1
    x239      C219      -1
    x242      __OBJ___  318
    x242      C66       -1
    x242      C157      -1
    x242      C300      -1
    x243      __OBJ___  754
    x243      C127      -1
    x243      C214      -1
    x243      C314      -1
    x247      __OBJ___  283
    x247      C146      -1
    x247      C376      -1
    x249      __OBJ___  396
    x249      C116      -1
    x249      C216      -1
    x249      C273      -1
    x249      C348      -1
    x249      C377      -1
    x252      __OBJ___  382
    x252      C43       -1
    x252      C68       -1
    x252      C141      -1
    x256      __OBJ___  406
    x256      C37       -1
    x256      C162      -1
    x256      C314      -1
    x261      __OBJ___  877
    x261      C203      -1
    x261      C295      -1
    x261      C387      -1
    x261      C389      -1
    x261      C391      -1
    x264      __OBJ___  62
    x264      C244      -1
    x264      C273      -1
    x266      __OBJ___  187
    x266      C141      -1
    x266      C151      -1
    x266      C300      -1
    x268      __OBJ___  794
    x268      C135      -1
    x268      C188      -1
    x268      C214      -1
    x270      __OBJ___  476
    x270      C37       -1
    x270      C111      -1
    x270      C225      -1
    x270      C297      -1
    x272      __OBJ___  72
    x272      C86       -1
    x272      C227      -1
    x272      C343      -1
    x278      __OBJ___  73
    x278      C66       -1
    x278      C113      -1
    x279      __OBJ___  12
    x279      C126      -1
    x279      C141      -1
    x280      __OBJ___  803
    x280      C86       -1
    x280      C219      -1
    x280      C357      -1
    x283      __OBJ___  348
    x283      C48       -1
    x283      C90       -1
    x283      C366      -1
    x283      C374      -1
    x284      __OBJ___  129
    x284      C71       -1
    x284      C226      -1
    x285      __OBJ___  70
    x285      C220      -1
    x285      C331      -1
    x290      __OBJ___  237
    x290      C14       -1
    x290      C354      -1
    x291      __OBJ___  687
    x291      C163      -1
    x291      C167      -1
    x294      __OBJ___  948
    x294      C175      -1
    x294      C314      -1
    x297      __OBJ___  252
    x297      C115      -1
    x297      C368      -1
    x299      __OBJ___  870
    x299      C82       -1
    x299      C349      -1
    x299      C354      -1
    x301      __OBJ___  71
    x301      C96       -1
    x301      C167      -1
    x303      __OBJ___  274
    x303      C82       -1
    x303      C227      -1
    x303      C331      -1
    x305      __OBJ___  92
    x305      C203      -1
    x305      C317      -1
    x306      __OBJ___  239
    x306      C203      -1
    x306      C244      -1
    x306      C378      -1
    x309      __OBJ___  141
    x309      C96       -1
    x309      C229      -1
    x309      C392      -1
    x309      C395      -1
    x311      __OBJ___  659
    x311      C207      -1
    x311      C245      -1
    x312      __OBJ___  95
    x312      C10       -1
    x312      C332      -1
    x312      C338      -1
    x314      __OBJ___  4
    x314      C18       -1
    x314      C29       -1
    x314      C45       -1
    x314      C125      -1
    x318      __OBJ___  647
    x318      C67       -1
    x318      C130      -1
    x318      C258      -1
    x318      C323      -1
    x319      __OBJ___  343
    x319      C370      -1
    x324      __OBJ___  316
    x324      C45       -1
    x324      C111      -1
    x324      C283      -1
    x324      C322      -1
    x325      __OBJ___  130
    x325      C126      -1
    x325      C268      -1
    x325      C289      -1
    x325      C323      -1
    x325      C342      -1
    x325      C395      -1
    x331      __OBJ___  426
    x331      C125      -1
    x331      C203      -1
    x331      C311      -1
    x331      C315      -1
    x331      C327      -1
    x333      __OBJ___  254
    x333      C143      -1
    x333      C274      -1
    x333      C357      -1
    x333      C360      -1
    x334      __OBJ___  311
    x334      C17       -1
    x334      C82       -1
    x334      C279      -1
    x334      C374      -1
    x335      __OBJ___  668
    x335      C178      -1
    x335      C188      -1
    x335      C218      -1
    x335      C369      -1
    x338      __OBJ___  208
    x338      C58       -1
    x341      __OBJ___  610
    x341      C188      -1
    x341      C245      -1
    x341      C368      -1
    x342      __OBJ___  218
    x342      C89       -1
    x342      C315      -1
    x342      C332      -1
    x343      __OBJ___  553
    x343      C34       -1
    x343      C278      -1
    x344      __OBJ___  143
    x344      C21       -1
    x344      C115      -1
    x344      C236      -1
    x345      __OBJ___  857
    x345      C52       -1
    x345      C106      -1
    x345      C295      -1
    x347      __OBJ___  441
    x347      C112      -1
    x347      C359      -1
    x350      __OBJ___  609
    x350      C312      -1
    x350      C391      -1
    x355      __OBJ___  60
    x355      C29       -1
    x355      C106      -1
    x355      C367      -1
    x358      __OBJ___  853
    x358      C48       -1
    x358      C122      -1
    x358      C313      -1
    x360      __OBJ___  279
    x360      C79       -1
    x360      C97       -1
    x361      __OBJ___  434
    x361      C111      -1
    x361      C134      -1
    x361      C144      -1
    x363      __OBJ___  625
    x363      C339      -1
    x363      C368      -1
    x364      __OBJ___  268
    x364      C278      -1
    x365      __OBJ___  304
    x365      C111      -1
    x365      C113      -1
    x365      C251      -1
    x370      __OBJ___  765
    x370      C41       -1
    x370      C73       -1
    x370      C388      -1
    x371      __OBJ___  436
    x371      C56       -1
    x371      C122      -1
    x373      __OBJ___  123
    x373      C90       -1
    x373      C378      -1
    x374      __OBJ___  949
    x374      C188      -1
    x374      C191      -1
    x374      C281      -1
    x374      C374      -1
    x381      __OBJ___  758
    x381      C34       -1
    x381      C339      -1
    x381      C376      -1
    x382      __OBJ___  168
    x382      C51       -1
    x382      C317      -1
    x382      C327      -1
    x387      __OBJ___  583
    x387      C64       -1
    x387      C256      -1
    x388      __OBJ___  354
    x388      C38       -1
    x388      C183      -1
    x391      __OBJ___  906
    x391      C33       -1
    x391      C87       -1
    x391      C332      -1
    x394      __OBJ___  524
    x394      C28       -1
    x394      C236      -1
    x395      __OBJ___  58
    x395      C123      -1
    x395      C125      -1
    x395      C215      -1
    x395      C258      -1
    x395      C345      -1
    x397      __OBJ___  554
    x397      C52       -1
    x397      C242      -1
    x398      __OBJ___  434
    x398      C182      -1
    x398      C360      -1
    MARKER    'MARKER'                 'INTEND'
RHS
    RHS       __OBJ___  -21334
    RHS       C4        -1
    RHS       C9        -1
    RHS       C10       -1
    RHS       C14       -1
    RHS       C15       -1
    RHS       C17       -1
    RHS       C18       -1
    RHS       C21       -1
    RHS       C26       -1
    RHS       C28       -1
    RHS       C29       -1
    RHS       C33       -1
    RHS       C34       -1
    RHS       C36       -1
    RHS       C37       -1
    RHS       C38       -1
    RHS       C40       -1
    RHS       C41       -1
    RHS       C43       -1
    RHS       C45       -1
    RHS       C48       -1
    RHS       C49       -1
    RHS       C51       -1
    RHS       C52       -1
    RHS       C56       -1
    RHS       C58       -1
    RHS       C64       -1
    RHS       C66       -1
    RHS       C67       -1
    RHS       C68       -1
    RHS       C70       -1
    RHS       C71       -1
    RHS       C73       -1
    RHS       C79       -1
    RHS       C81       -1
    RHS       C82       -1
    RHS       C84       -1
    RHS       C86       -1
    RHS       C87       -1
    RHS       C88       -1
    RHS       C89       -1
    RHS       C90       -1
    RHS       C96       -1
    RHS       C97       -1
    RHS       C98       -1
    RHS       C106      -1
    RHS       C107      -1
    RHS       C109      -1
    RHS       C111      -1
    RHS       C112      -1
    RHS       C113      -1
    RHS       C115      -1
    RHS       C116      -1
    RHS       C117      -1
    RHS       C122      -1
    RHS       C123      -1
    RHS       C125      -1
    RHS       C126      -1
    RHS       C127      -1
    RHS       C130      -1
    RHS       C133      -1
    RHS       C134      -1
    RHS       C135      -1
    RHS       C136      -1
    RHS       C139      -1
    RHS       C141      -1
    RHS       C143      -1
    RHS       C144      -1
    RHS       C145      -1
    RHS       C146      -1
    RHS       C147      -1
    RHS       C151      -1
    RHS       C156      -1
    RHS       C157      -1
    RHS       C158      -1
    RHS       C162      -1
    RHS       C163      -1
    RHS       C165      -1
    RHS       C167      -1
    RHS       C170      -1
    RHS       C175      -1
    RHS       C177      -1
    RHS       C178      -1
    RHS       C182      -1
    RHS       C183      -1
    RHS       C188      -1
    RHS       C191      -1
    RHS       C194      -1
    RHS       C196      -1
    RHS       C203      -1
    RHS       C205      -1
    RHS       C207      -1
    RHS       C214      -1
    RHS       C215      -1
    RHS       C216      -1
    RHS       C218      -1
    RHS       C219      -1
    RHS       C220      -1
    RHS       C223      -1
    RHS       C225      -1
    RHS       C226      -1
    RHS       C227      -1
    RHS       C229      -1
    RHS       C231      -1
    RHS       C235      -1
    RHS       C236      -1
    RHS       C240      -1
    RHS       C241      -1
    RHS       C242      -1
    RHS       C244      -1
    RHS       C245      -1
    RHS       C251      -1
    RHS       C256      -1
    RHS       C258      -1
    RHS       C262      -1
    RHS       C268      -1
    RHS       C273      -1
    RHS       C274      -1
    RHS       C278      -1
    RHS       C279      -1
    RHS       C281      -1
    RHS       C283      -1
    RHS       C289      -1
    RHS       C294      -1
    RHS       C295      -1
    RHS       C297      -1
    RHS       C300      -1
    RHS       C303      -1
    RHS       C307      -1
    RHS       C311      -1
    RHS       C312      -1
    RHS       C313      -1
    RHS       C314      -1
    RHS       C315      -1
    RHS       C317      -1
    RHS       C322      -1
    RHS       C323      -1
    RHS       C327      -1
    RHS       C331      -1
    RHS       C332      -1
    RHS       C338      -1
    RHS       C339      -1
    RHS       C342      -1
    RHS       C343      -1
    RHS       C345      -1
    RHS       C348      -1
    RHS       C349      -1
    RHS       C350      -1
    RHS       C354      -1
    RHS       C357      -1
    RHS       C359      -1
    RHS       C360      -1
    RHS       C366      -1
    RHS       C367      -1
    RHS       C368      -1
    RHS       C369      -1
    RHS       C370      -1
    RHS       C374      -1
    RHS       C376      -1
    RHS       C377      -1
    RHS       C378      -1
    RHS       C387      -1
    RHS       C388      -1
    RHS       C389      -1
    RHS       C391      -1
    RHS       C392      -1
    RHS       C395      -1
BOUNDS
 UP BOUND     x4        1
 UP BOUND     x7        1
 UP BOUND     x9        1
 UP BOUND     x10       1
 UP BOUND     x11       1
 UP BOUND     x14       1
 UP BOUND     x16       1
 UP BOUND     x17       1
 UP BOUND     x18       1
 UP BOUND     x20       1
 UP BOUND     x21       1
 UP BOUND     x25       1
 UP BOUND     x29       1
 UP BOUND     x31       1
 UP BOUND     x32       1
 UP BOUND     x34       1
 UP BOUND     x36       1
 UP BOUND     x37       1
 UP BOUND     x38       1
 UP BOUND     x39       1
 UP BOUND     x42       1
 UP BOUND     x43       1
 UP BOUND     x44       1
 UP BOUND     x47       1
 UP BOUND     x48       1
 UP BOUND     x49       1
 UP BOUND     x61       1
 UP BOUND     x64       1
 UP BOUND     x67       1
 UP BOUND     x68       1
 UP BOUND     x69       1
 UP BOUND     x76       1
 UP BOUND     x79       1
 UP BOUND     x81       1
 UP BOUND     x84       1
 UP BOUND     x85       1
 UP BOUND     x89       1
 UP BOUND     x91       1
 UP BOUND     x93       1
 UP BOUND     x94       1
 UP BOUND     x98       1
 UP BOUND     x99       1
 UP BOUND     x101      1
 UP BOUND     x116      1
 UP BOUND     x118      1
 UP BOUND     x120      1
 UP BOUND     x123      1
 UP BOUND     x124      1
 UP BOUND     x130      1
 UP BOUND     x131      1
 UP BOUND     x133      1
 UP BOUND     x137      1
 UP BOUND     x138      1
 UP BOUND     x139      1
 UP BOUND     x142      1
 UP BOUND     x144      1
 UP BOUND     x146      1
 UP BOUND     x149      1
 UP BOUND     x150      1
 UP BOUND     x154      1
 UP BOUND     x156      1
 UP BOUND     x157      1
 UP BOUND     x158      1
 UP BOUND     x159      1
 UP BOUND     x164      1
 UP BOUND     x169      1
 UP BOUND     x171      1
 UP BOUND     x175      1
 UP BOUND     x179      1
 UP BOUND     x180      1
 UP BOUND     x181      1
 UP BOUND     x182      1
 UP BOUND     x187      1
 UP BOUND     x192      1
 UP BOUND     x194      1
 UP BOUND     x195      1
 UP BOUND     x196      1
 UP BOUND     x199      1
 UP BOUND     x200      1
 UP BOUND     x202      1
 UP BOUND     x203      1
 UP BOUND     x204      1
 UP BOUND     x205      1
 UP BOUND     x207      1
 UP BOUND     x211      1
 UP BOUND     x213      1
 UP BOUND     x221      1
 UP BOUND     x222      1
 UP BOUND     x227      1
 UP BOUND     x232      1
 UP BOUND     x234      1
 UP BOUND     x238      1
 UP BOUND     x239      1
 UP BOUND     x242      1
 UP BOUND     x243      1
 UP BOUND     x247      1
 UP BOUND     x249      1
 UP BOUND     x252      1
 UP BOUND     x256      1
 UP BOUND     x261      1
 UP BOUND     x264      1
 UP BOUND     x266      1
 UP BOUND     x268      1
 UP BOUND     x270      1
 UP BOUND     x272      1
 UP BOUND     x278      1
 UP BOUND     x279      1
 UP BOUND     x280      1
 UP BOUND     x283      1
 UP BOUND     x284      1
 UP BOUND     x285      1
 UP BOUND     x290      1
 UP BOUND     x291      1
 UP BOUND     x294      1
 UP BOUND     x297      1
 UP BOUND     x299      1
 UP BOUND     x301      1
 UP BOUND     x303      1
 UP BOUND     x305      1
 UP BOUND     x306      1
 UP BOUND     x309      1
 UP BOUND     x311      1
 UP BOUND     x312      1
 UP BOUND     x314      1
 UP BOUND     x318      1
 UP BOUND     x319      1
 UP BOUND     x324      1
 UP BOUND     x325      1
 UP BOUND     x331      1
 UP BOUND     x333      1
 UP BOUND     x334      1
 UP BOUND     x335      1
 UP BOUND     x338      1
 UP BOUND     x341      1
 UP BOUND     x342      1
 UP BOUND     x343      1
 UP BOUND     x344      1
 UP BOUND     x345      1
 UP BOUND     x347      1
 UP BOUND     x350      1
 UP BOUND     x355      1
 UP BOUND     x358      1
 UP BOUND     x360      1
 UP BOUND     x361      1
 UP BOUND     x363      1
 UP BOUND     x364      1
 UP BOUND     x365      1
 UP BOUND     x370      1
 UP BOUND     x371      1
 UP BOUND     x373      1
 UP BOUND     x374      1
 UP BOUND     x381      1
 UP BOUND     x382      1
 UP BOUND     x387      1
 UP BOUND     x388      1
 UP BOUND     x391      1
 UP BOUND     x394      1
 UP BOUND     x395      1
 UP BOUND     x397      1
 UP BOUND     x398      1
ENDATA
